\* Dreamteam *\
Maximize
OBJ: 9.81158863242 x_0 + 11.4040316979 x_1 + 41.9912269625 x_10
 + 12.8046294066 x_11 + 32.252316569 x_12 + 15.505676952 x_13
 + 1.28338154459 x_14 + 27.8405670089 x_15 + 4.87686682262 x_16
 + 63.2472769617 x_17 + 12.2360459997 x_18 + 26.3407986872 x_19
 + 32.9940001786 x_2 + 11.3570904424 x_20 + 18.0671140882 x_21
 - 0.475066698505 x_3 + 10.2516783576 x_4 + 5.35768492346 x_5
 + 8.45981271874 x_6 + 77.5295833111 x_7 + 30.8539470492 x_8
 + 8.27531324194 x_9
Subject To
_C1: x_0 + x_12 + x_20 + x_8 >= 1
_C10: 8.5 x_0 + 8.5 x_1 + 9.5 x_10 + 10 x_11 + 9.5 x_12 + 9.5 x_13 + 8.5 x_14
 + 9 x_15 + 8.5 x_16 + 8.5 x_17 + 8.5 x_18 + 9 x_19 + 8 x_2 + 8.5 x_20
 + 8 x_21 + 8.5 x_3 + 9.5 x_4 + 8.5 x_5 + 10 x_6 + 8.5 x_7 + 8 x_8 + 8 x_9
 <= 100
_C11: x_0 + x_1 + x_10 + x_2 + x_3 + x_4 + x_5 + x_6 + x_7 + x_8 + x_9 <= 7
_C12: x_11 + x_12 + x_13 + x_14 + x_15 + x_16 + x_17 + x_18 + x_19 + x_20
 + x_21 <= 7
_C2: x_0 + x_12 + x_20 + x_8 <= 4
_C3: x_1 + x_11 + x_13 + x_17 + x_21 + x_6 >= 3
_C4: x_1 + x_11 + x_13 + x_17 + x_21 + x_6 <= 6
_C5: x_10 + x_16 + x_18 + x_4 >= 1
_C6: x_10 + x_16 + x_18 + x_4 <= 4
_C7: x_14 + x_15 + x_19 + x_2 + x_3 + x_5 + x_7 + x_9 >= 3
_C8: x_14 + x_15 + x_19 + x_2 + x_3 + x_5 + x_7 + x_9 <= 6
_C9: x_0 + x_1 + x_10 + x_11 + x_12 + x_13 + x_14 + x_15 + x_16 + x_17 + x_18
 + x_19 + x_2 + x_20 + x_21 + x_3 + x_4 + x_5 + x_6 + x_7 + x_8 + x_9 = 11
Binaries
x_0
x_1
x_10
x_11
x_12
x_13
x_14
x_15
x_16
x_17
x_18
x_19
x_2
x_20
x_21
x_3
x_4
x_5
x_6
x_7
x_8
x_9
End
